c This is QMaxSAT 2017 based on 14.07
c This is Glucose 3.0
c This is MiniSat 2.2.0
c WARNING: for repeatability, setting FPU to use double precision
c card = mrwto, comp = 0, pmodel = 0, narr = 3, mct = 14, verb = 0
cr firstCPXsol 0 0 0
c top = 80229
c |  Number of variables:    2616                                             |
c |  Number of clauses:      159425                                           |
c |  Weight of hard clauses: 80229                                            |
c |  Number of soft clauses: 546                                              |
c |  Number of unit soft clauses: 546                                         |
c |  Maximum Cardinality (by unit): 240684       (240684      )               |
c last restart ## conflicts  :  3 448 
o 3358 | cpuTime 0.028928 s
c Sum of weights = 80228
c A number of soft clauses remained = 182
c MRWTO encoding for Pseudo-Boolean Constraints
c sizeMax=3358
c No.0 Divisor=15	generated by pow1
c No.1 Divisor=15	generated by pow1
c No.2 Divisor=15	generated by pow1
c p0= 15	p1= 15	p2= 15	
c number of digits = 4
c linkingVar[0].size = 15, linkingVar[1].size = 15, linkingVar[2].size = 15, linkingVar[3].size = 1, 
c Pseudo-Boolean Constraints: 5049 variables and 59875 clauses
c Sum of weights = 80228
c A number of soft clauses remained = 182
c MRWTO encoding for Pseudo-Boolean Constraints
c sizeMax=3358
c No.0 Divisor=15	generated by pow1
c No.1 Divisor=15	generated by pow1
c No.2 Divisor=15	generated by pow1
c p0= 15	p1= 15	p2= 15	
c number of digits = 4
c linkingVar[0].size = 15, linkingVar[1].size = 15, linkingVar[2].size = 15, linkingVar[3].size = 1, 
c Pseudo-Boolean Constraints: 5049 variables and 59875 clauses
c Sum of weights = 80228
c A number of soft clauses remained = 182
c MRWTO encoding for Pseudo-Boolean Constraints
c sizeMax=3358
c No.0 Divisor=15	generated by pow1
c No.1 Divisor=15	generated by pow1
c No.2 Divisor=15	generated by pow1
c p0= 15	p1= 15	p2= 15	
c number of digits = 4
c linkingVar[0].size = 15, linkingVar[1].size = 15, linkingVar[2].size = 15, linkingVar[3].size = 1, 
c Pseudo-Boolean Constraints: 5049 variables and 59875 clauses
c last restart ## conflicts  :  53 1412 
o 3193 | cpuTime 0.073425 s
c last restart ## conflicts  :  19 5462 
o 2660 | cpuTime 0.077345 s
c last restart ## conflicts  :  197 1626 
o 2446 | cpuTime 0.138517 s
c last restart ## conflicts  :  224 1632 
o 2357 | cpuTime 0.157757 s
c last restart ## conflicts  :  41 2376 
o 2131 | cpuTime 0.16367 s
c last restart ## conflicts  :  197 837 
o 2100 | cpuTime 0.329143 s
c last restart ## conflicts  :  242 2139 
o 1965 | cpuTime 0.346293 s
c last restart ## conflicts  :  11 2713 
o 1849 | cpuTime 0.353711 s
c last restart ## conflicts  :  355 757 
o 1827 | cpuTime 0.6643 s
c last restart ## conflicts  :  271 776 
o 1801 | cpuTime 1.23701 s
c last restart ## conflicts  :  58 780 
o 1780 | cpuTime 2.66826 s
c last restart ## conflicts  :  23 724 
o 1771 | cpuTime 3.80244 s
c last restart ## conflicts  :  187 730 
o 1770 | cpuTime 4.695 s
c last restart ## conflicts  :  29 823 
o 1767 | cpuTime 9.74687 s
c last restart ## conflicts  :  956 1387 
o 1766 | cpuTime 9.81956 s
s OPTIMUM FOUND
cr positiVarArr: [ | 2@1(1->2) | 22@1(2->8) | 94@1(7->10) | 111@1(8->13) | 123@1(9->11) | 135@1(10->9) | 141@1(11->1) | 175@1(13->7) | 210@2(1->14) | 228@2(3->4) | 250@2(4->12) | 267@2(6->1) | 356@2(12->6) | 381@2(14->3) | 397@3(1->5) | 449@3(5->1) | ]
cr the 1-th chain: [ 1->2->8->13->7->10->9->11->1 ] (#non-depot=7) {#cumul.=8}
cr the 2-th chain: [ 1->14->3->4->12->6->1 ] (#non-depot=5) {#cumul.=13}
cr the 3-th chain: [ 1->5->1 ] (#non-depot=1) {#cumul.=14}
c Latest Answer = 0 by 16 loops
c restarts              : 843
c conflicts             : 175321         (13594 /sec)
c decisions             : 506832         (0.00 % random) (39298 /sec)
c propagations          : 92402865       (7164572 /sec)
c conflict literals     : 17576259       (36.45 % deleted)
c Memory used           : 100.00 MB
c CPU time              : 12.8972 s
